(set-option :produce-models true)
(set-logic QF_LRA)
(set-info :notes | Strip-packing problem.|)
(declare-fun x0 () Real)
(declare-fun y0 () Real)
(declare-fun x1 () Real)
(declare-fun y1 () Real)
(declare-fun x2 () Real)
(declare-fun y2 () Real)
(declare-fun x3 () Real)
(declare-fun y3 () Real)
(declare-fun x4 () Real)
(declare-fun y4 () Real)
(declare-fun x5 () Real)
(declare-fun y5 () Real)
(declare-fun x6 () Real)
(declare-fun y6 () Real)
(declare-fun x7 () Real)
(declare-fun y7 () Real)
(declare-fun x8 () Real)
(declare-fun y8 () Real)
(declare-fun x9 () Real)
(declare-fun y9 () Real)
(declare-fun x10 () Real)
(declare-fun y10 () Real)
(declare-fun x11 () Real)
(declare-fun y11 () Real)
(declare-fun x12 () Real)
(declare-fun y12 () Real)
(declare-fun x13 () Real)
(declare-fun y13 () Real)
(declare-fun x14 () Real)
(declare-fun y14 () Real)
(declare-fun z () Real)
(declare-fun c () Real)
(assert (and (= c z) (and (>= x0 0) 
(and (>= y0 0) 
(and (>= x1 0) 
(and (>= y1 0) 
(and (>= x2 0) 
(and (>= y2 0) 
(and (>= x3 0) 
(and (>= y3 0) 
(and (>= x4 0) 
(and (>= y4 0) 
(and (>= x5 0) 
(and (>= y5 0) 
(and (>= x6 0) 
(and (>= y6 0) 
(and (>= x7 0) 
(and (>= y7 0) 
(and (>= x8 0) 
(and (>= y8 0) 
(and (>= x9 0) 
(and (>= y9 0) 
(and (>= x10 0) 
(and (>= y10 0) 
(and (>= x11 0) 
(and (>= y11 0) 
(and (>= x12 0) 
(and (>= y12 0) 
(and (>= x13 0) 
(and (>= y13 0) 
(and (>= x14 0) 
(and (>= y14 0) 
(and (>= z 0) 
(and (>= c 0) 
(and (<= (+ x0 0.1107359063) z) 
(and (<= 0.6079291689 y0) 
(and (<= y0 1.0) 
(and (<= x0 (- 3.3859925595 0.1107359063)) 
(and (>= x0 0) 
(and (<= (+ x1 0.8765427134) z) 
(and (<= 0.5026122354 y1) 
(and (<= y1 1.0) 
(and (<= x1 (- 3.3859925595 0.8765427134)) 
(and (>= x1 0) 
(and (<= (+ x2 0.2353437602) z) 
(and (<= 0.4758043565 y2) 
(and (<= y2 1.0) 
(and (<= x2 (- 3.3859925595 0.2353437602)) 
(and (>= x2 0) 
(and (<= (+ x3 0.5676105442) z) 
(and (<= 0.4399118329 y3) 
(and (<= y3 1.0) 
(and (<= x3 (- 3.3859925595 0.5676105442)) 
(and (>= x3 0) 
(and (<= (+ x4 0.4572249347) z) 
(and (<= 0.4238380163 y4) 
(and (<= y4 1.0) 
(and (<= x4 (- 3.3859925595 0.4572249347)) 
(and (>= x4 0) 
(and (<= (+ x5 0.8315061703) z) 
(and (<= 0.4061168879 y5) 
(and (<= y5 1.0) 
(and (<= x5 (- 3.3859925595 0.8315061703)) 
(and (>= x5 0) 
(and (<= (+ x6 0.9995972253) z) 
(and (<= 0.373010947 y6) 
(and (<= y6 1.0) 
(and (<= x6 (- 3.3859925595 0.9995972253)) 
(and (>= x6 0) 
(and (<= (+ x7 0.815535199) z) 
(and (<= 0.294529903 y7) 
(and (<= y7 1.0) 
(and (<= x7 (- 3.3859925595 0.815535199)) 
(and (>= x7 0) 
(and (<= (+ x8 0.7523573542) z) 
(and (<= 0.2695555415 y8) 
(and (<= y8 1.0) 
(and (<= x8 (- 3.3859925595 0.7523573542)) 
(and (>= x8 0) 
(and (<= (+ x9 0.6544521991) z) 
(and (<= 0.1938987941 y9) 
(and (<= y9 1.0) 
(and (<= x9 (- 3.3859925595 0.6544521991)) 
(and (>= x9 0) 
(and (<= (+ x10 0.2100943678) z) 
(and (<= 0.1249333763 y10) 
(and (<= y10 1.0) 
(and (<= x10 (- 3.3859925595 0.2100943678)) 
(and (>= x10 0) 
(and (<= (+ x11 0.675468283) z) 
(and (<= 0.1137595136 y11) 
(and (<= y11 1.0) 
(and (<= x11 (- 3.3859925595 0.675468283)) 
(and (>= x11 0) 
(and (<= (+ x12 0.0407524645) z) 
(and (<= 0.08167556 y12) 
(and (<= y12 1.0) 
(and (<= x12 (- 3.3859925595 0.0407524645)) 
(and (>= x12 0) 
(and (<= (+ x13 0.1726588421) z) 
(and (<= 0.0184531034 y13) 
(and (<= y13 1.0) 
(and (<= x13 (- 3.3859925595 0.1726588421)) 
(and (>= x13 0) 
(and (<= (+ x14 0.6712994795) z) 
(and (<= 0.0167860834 y14) 
(and (<= y14 1.0) 
(and (<= x14 (- 3.3859925595 0.6712994795)) 
(and (>= x14 0) 
(and (<= c 3.3859925595) 
(and (or (<= (+ x0 0.1107359063) x1) (or (<= (+ x1 0.8765427134) x0) (or (>= (- y0 0.6079291689) y1) (or (>= (- y1 0.5026122354) y0))))) 
(and (or (<= (+ x0 0.1107359063) x2) (or (<= (+ x2 0.2353437602) x0) (or (>= (- y0 0.6079291689) y2) (or (>= (- y2 0.4758043565) y0))))) 
(and (or (<= (+ x0 0.1107359063) x3) (or (<= (+ x3 0.5676105442) x0) (or (>= (- y0 0.6079291689) y3) (or (>= (- y3 0.4399118329) y0))))) 
(and (or (<= (+ x0 0.1107359063) x4) (or (<= (+ x4 0.4572249347) x0) (or (>= (- y0 0.6079291689) y4) (or (>= (- y4 0.4238380163) y0))))) 
(and (or (<= (+ x0 0.1107359063) x5) (or (<= (+ x5 0.8315061703) x0) (or (>= (- y0 0.6079291689) y5) (or (>= (- y5 0.4061168879) y0))))) 
(and (or (<= (+ x0 0.1107359063) x6) (or (<= (+ x6 0.9995972253) x0) (or (>= (- y0 0.6079291689) y6) (or (>= (- y6 0.373010947) y0))))) 
(and (or (<= (+ x0 0.1107359063) x7) (or (<= (+ x7 0.815535199) x0) (or (>= (- y0 0.6079291689) y7) (or (>= (- y7 0.294529903) y0))))) 
(and (or (<= (+ x0 0.1107359063) x8) (or (<= (+ x8 0.7523573542) x0) (or (>= (- y0 0.6079291689) y8) (or (>= (- y8 0.2695555415) y0))))) 
(and (or (<= (+ x0 0.1107359063) x9) (or (<= (+ x9 0.6544521991) x0) (or (>= (- y0 0.6079291689) y9) (or (>= (- y9 0.1938987941) y0))))) 
(and (or (<= (+ x0 0.1107359063) x10) (or (<= (+ x10 0.2100943678) x0) (or (>= (- y0 0.6079291689) y10) (or (>= (- y10 0.1249333763) y0))))) 
(and (or (<= (+ x0 0.1107359063) x11) (or (<= (+ x11 0.675468283) x0) (or (>= (- y0 0.6079291689) y11) (or (>= (- y11 0.1137595136) y0))))) 
(and (or (<= (+ x0 0.1107359063) x12) (or (<= (+ x12 0.0407524645) x0) (or (>= (- y0 0.6079291689) y12) (or (>= (- y12 0.08167556) y0))))) 
(and (or (<= (+ x0 0.1107359063) x13) (or (<= (+ x13 0.1726588421) x0) (or (>= (- y0 0.6079291689) y13) (or (>= (- y13 0.0184531034) y0))))) 
(and (or (<= (+ x0 0.1107359063) x14) (or (<= (+ x14 0.6712994795) x0) (or (>= (- y0 0.6079291689) y14) (or (>= (- y14 0.0167860834) y0))))) 
(and (or (<= (+ x1 0.8765427134) x2) (or (<= (+ x2 0.2353437602) x1) (or (>= (- y1 0.5026122354) y2) (or (>= (- y2 0.4758043565) y1))))) 
(and (or (<= (+ x1 0.8765427134) x3) (or (<= (+ x3 0.5676105442) x1) (or (>= (- y1 0.5026122354) y3) (or (>= (- y3 0.4399118329) y1))))) 
(and (or (<= (+ x1 0.8765427134) x4) (or (<= (+ x4 0.4572249347) x1) (or (>= (- y1 0.5026122354) y4) (or (>= (- y4 0.4238380163) y1))))) 
(and (or (<= (+ x1 0.8765427134) x5) (or (<= (+ x5 0.8315061703) x1) (or (>= (- y1 0.5026122354) y5) (or (>= (- y5 0.4061168879) y1))))) 
(and (or (<= (+ x1 0.8765427134) x6) (or (<= (+ x6 0.9995972253) x1) (or (>= (- y1 0.5026122354) y6) (or (>= (- y6 0.373010947) y1))))) 
(and (or (<= (+ x1 0.8765427134) x7) (or (<= (+ x7 0.815535199) x1) (or (>= (- y1 0.5026122354) y7) (or (>= (- y7 0.294529903) y1))))) 
(and (or (<= (+ x1 0.8765427134) x8) (or (<= (+ x8 0.7523573542) x1) (or (>= (- y1 0.5026122354) y8) (or (>= (- y8 0.2695555415) y1))))) 
(and (or (<= (+ x1 0.8765427134) x9) (or (<= (+ x9 0.6544521991) x1) (or (>= (- y1 0.5026122354) y9) (or (>= (- y9 0.1938987941) y1))))) 
(and (or (<= (+ x1 0.8765427134) x10) (or (<= (+ x10 0.2100943678) x1) (or (>= (- y1 0.5026122354) y10) (or (>= (- y10 0.1249333763) y1))))) 
(and (or (<= (+ x1 0.8765427134) x11) (or (<= (+ x11 0.675468283) x1) (or (>= (- y1 0.5026122354) y11) (or (>= (- y11 0.1137595136) y1))))) 
(and (or (<= (+ x1 0.8765427134) x12) (or (<= (+ x12 0.0407524645) x1) (or (>= (- y1 0.5026122354) y12) (or (>= (- y12 0.08167556) y1))))) 
(and (or (<= (+ x1 0.8765427134) x13) (or (<= (+ x13 0.1726588421) x1) (or (>= (- y1 0.5026122354) y13) (or (>= (- y13 0.0184531034) y1))))) 
(and (or (<= (+ x1 0.8765427134) x14) (or (<= (+ x14 0.6712994795) x1) (or (>= (- y1 0.5026122354) y14) (or (>= (- y14 0.0167860834) y1))))) 
(and (or (<= (+ x2 0.2353437602) x3) (or (<= (+ x3 0.5676105442) x2) (or (>= (- y2 0.4758043565) y3) (or (>= (- y3 0.4399118329) y2))))) 
(and (or (<= (+ x2 0.2353437602) x4) (or (<= (+ x4 0.4572249347) x2) (or (>= (- y2 0.4758043565) y4) (or (>= (- y4 0.4238380163) y2))))) 
(and (or (<= (+ x2 0.2353437602) x5) (or (<= (+ x5 0.8315061703) x2) (or (>= (- y2 0.4758043565) y5) (or (>= (- y5 0.4061168879) y2))))) 
(and (or (<= (+ x2 0.2353437602) x6) (or (<= (+ x6 0.9995972253) x2) (or (>= (- y2 0.4758043565) y6) (or (>= (- y6 0.373010947) y2))))) 
(and (or (<= (+ x2 0.2353437602) x7) (or (<= (+ x7 0.815535199) x2) (or (>= (- y2 0.4758043565) y7) (or (>= (- y7 0.294529903) y2))))) 
(and (or (<= (+ x2 0.2353437602) x8) (or (<= (+ x8 0.7523573542) x2) (or (>= (- y2 0.4758043565) y8) (or (>= (- y8 0.2695555415) y2))))) 
(and (or (<= (+ x2 0.2353437602) x9) (or (<= (+ x9 0.6544521991) x2) (or (>= (- y2 0.4758043565) y9) (or (>= (- y9 0.1938987941) y2))))) 
(and (or (<= (+ x2 0.2353437602) x10) (or (<= (+ x10 0.2100943678) x2) (or (>= (- y2 0.4758043565) y10) (or (>= (- y10 0.1249333763) y2))))) 
(and (or (<= (+ x2 0.2353437602) x11) (or (<= (+ x11 0.675468283) x2) (or (>= (- y2 0.4758043565) y11) (or (>= (- y11 0.1137595136) y2))))) 
(and (or (<= (+ x2 0.2353437602) x12) (or (<= (+ x12 0.0407524645) x2) (or (>= (- y2 0.4758043565) y12) (or (>= (- y12 0.08167556) y2))))) 
(and (or (<= (+ x2 0.2353437602) x13) (or (<= (+ x13 0.1726588421) x2) (or (>= (- y2 0.4758043565) y13) (or (>= (- y13 0.0184531034) y2))))) 
(and (or (<= (+ x2 0.2353437602) x14) (or (<= (+ x14 0.6712994795) x2) (or (>= (- y2 0.4758043565) y14) (or (>= (- y14 0.0167860834) y2))))) 
(and (or (<= (+ x3 0.5676105442) x4) (or (<= (+ x4 0.4572249347) x3) (or (>= (- y3 0.4399118329) y4) (or (>= (- y4 0.4238380163) y3))))) 
(and (or (<= (+ x3 0.5676105442) x5) (or (<= (+ x5 0.8315061703) x3) (or (>= (- y3 0.4399118329) y5) (or (>= (- y5 0.4061168879) y3))))) 
(and (or (<= (+ x3 0.5676105442) x6) (or (<= (+ x6 0.9995972253) x3) (or (>= (- y3 0.4399118329) y6) (or (>= (- y6 0.373010947) y3))))) 
(and (or (<= (+ x3 0.5676105442) x7) (or (<= (+ x7 0.815535199) x3) (or (>= (- y3 0.4399118329) y7) (or (>= (- y7 0.294529903) y3))))) 
(and (or (<= (+ x3 0.5676105442) x8) (or (<= (+ x8 0.7523573542) x3) (or (>= (- y3 0.4399118329) y8) (or (>= (- y8 0.2695555415) y3))))) 
(and (or (<= (+ x3 0.5676105442) x9) (or (<= (+ x9 0.6544521991) x3) (or (>= (- y3 0.4399118329) y9) (or (>= (- y9 0.1938987941) y3))))) 
(and (or (<= (+ x3 0.5676105442) x10) (or (<= (+ x10 0.2100943678) x3) (or (>= (- y3 0.4399118329) y10) (or (>= (- y10 0.1249333763) y3))))) 
(and (or (<= (+ x3 0.5676105442) x11) (or (<= (+ x11 0.675468283) x3) (or (>= (- y3 0.4399118329) y11) (or (>= (- y11 0.1137595136) y3))))) 
(and (or (<= (+ x3 0.5676105442) x12) (or (<= (+ x12 0.0407524645) x3) (or (>= (- y3 0.4399118329) y12) (or (>= (- y12 0.08167556) y3))))) 
(and (or (<= (+ x3 0.5676105442) x13) (or (<= (+ x13 0.1726588421) x3) (or (>= (- y3 0.4399118329) y13) (or (>= (- y13 0.0184531034) y3))))) 
(and (or (<= (+ x3 0.5676105442) x14) (or (<= (+ x14 0.6712994795) x3) (or (>= (- y3 0.4399118329) y14) (or (>= (- y14 0.0167860834) y3))))) 
(and (or (<= (+ x4 0.4572249347) x5) (or (<= (+ x5 0.8315061703) x4) (or (>= (- y4 0.4238380163) y5) (or (>= (- y5 0.4061168879) y4))))) 
(and (or (<= (+ x4 0.4572249347) x6) (or (<= (+ x6 0.9995972253) x4) (or (>= (- y4 0.4238380163) y6) (or (>= (- y6 0.373010947) y4))))) 
(and (or (<= (+ x4 0.4572249347) x7) (or (<= (+ x7 0.815535199) x4) (or (>= (- y4 0.4238380163) y7) (or (>= (- y7 0.294529903) y4))))) 
(and (or (<= (+ x4 0.4572249347) x8) (or (<= (+ x8 0.7523573542) x4) (or (>= (- y4 0.4238380163) y8) (or (>= (- y8 0.2695555415) y4))))) 
(and (or (<= (+ x4 0.4572249347) x9) (or (<= (+ x9 0.6544521991) x4) (or (>= (- y4 0.4238380163) y9) (or (>= (- y9 0.1938987941) y4))))) 
(and (or (<= (+ x4 0.4572249347) x10) (or (<= (+ x10 0.2100943678) x4) (or (>= (- y4 0.4238380163) y10) (or (>= (- y10 0.1249333763) y4))))) 
(and (or (<= (+ x4 0.4572249347) x11) (or (<= (+ x11 0.675468283) x4) (or (>= (- y4 0.4238380163) y11) (or (>= (- y11 0.1137595136) y4))))) 
(and (or (<= (+ x4 0.4572249347) x12) (or (<= (+ x12 0.0407524645) x4) (or (>= (- y4 0.4238380163) y12) (or (>= (- y12 0.08167556) y4))))) 
(and (or (<= (+ x4 0.4572249347) x13) (or (<= (+ x13 0.1726588421) x4) (or (>= (- y4 0.4238380163) y13) (or (>= (- y13 0.0184531034) y4))))) 
(and (or (<= (+ x4 0.4572249347) x14) (or (<= (+ x14 0.6712994795) x4) (or (>= (- y4 0.4238380163) y14) (or (>= (- y14 0.0167860834) y4))))) 
(and (or (<= (+ x5 0.8315061703) x6) (or (<= (+ x6 0.9995972253) x5) (or (>= (- y5 0.4061168879) y6) (or (>= (- y6 0.373010947) y5))))) 
(and (or (<= (+ x5 0.8315061703) x7) (or (<= (+ x7 0.815535199) x5) (or (>= (- y5 0.4061168879) y7) (or (>= (- y7 0.294529903) y5))))) 
(and (or (<= (+ x5 0.8315061703) x8) (or (<= (+ x8 0.7523573542) x5) (or (>= (- y5 0.4061168879) y8) (or (>= (- y8 0.2695555415) y5))))) 
(and (or (<= (+ x5 0.8315061703) x9) (or (<= (+ x9 0.6544521991) x5) (or (>= (- y5 0.4061168879) y9) (or (>= (- y9 0.1938987941) y5))))) 
(and (or (<= (+ x5 0.8315061703) x10) (or (<= (+ x10 0.2100943678) x5) (or (>= (- y5 0.4061168879) y10) (or (>= (- y10 0.1249333763) y5))))) 
(and (or (<= (+ x5 0.8315061703) x11) (or (<= (+ x11 0.675468283) x5) (or (>= (- y5 0.4061168879) y11) (or (>= (- y11 0.1137595136) y5))))) 
(and (or (<= (+ x5 0.8315061703) x12) (or (<= (+ x12 0.0407524645) x5) (or (>= (- y5 0.4061168879) y12) (or (>= (- y12 0.08167556) y5))))) 
(and (or (<= (+ x5 0.8315061703) x13) (or (<= (+ x13 0.1726588421) x5) (or (>= (- y5 0.4061168879) y13) (or (>= (- y13 0.0184531034) y5))))) 
(and (or (<= (+ x5 0.8315061703) x14) (or (<= (+ x14 0.6712994795) x5) (or (>= (- y5 0.4061168879) y14) (or (>= (- y14 0.0167860834) y5))))) 
(and (or (<= (+ x6 0.9995972253) x7) (or (<= (+ x7 0.815535199) x6) (or (>= (- y6 0.373010947) y7) (or (>= (- y7 0.294529903) y6))))) 
(and (or (<= (+ x6 0.9995972253) x8) (or (<= (+ x8 0.7523573542) x6) (or (>= (- y6 0.373010947) y8) (or (>= (- y8 0.2695555415) y6))))) 
(and (or (<= (+ x6 0.9995972253) x9) (or (<= (+ x9 0.6544521991) x6) (or (>= (- y6 0.373010947) y9) (or (>= (- y9 0.1938987941) y6))))) 
(and (or (<= (+ x6 0.9995972253) x10) (or (<= (+ x10 0.2100943678) x6) (or (>= (- y6 0.373010947) y10) (or (>= (- y10 0.1249333763) y6))))) 
(and (or (<= (+ x6 0.9995972253) x11) (or (<= (+ x11 0.675468283) x6) (or (>= (- y6 0.373010947) y11) (or (>= (- y11 0.1137595136) y6))))) 
(and (or (<= (+ x6 0.9995972253) x12) (or (<= (+ x12 0.0407524645) x6) (or (>= (- y6 0.373010947) y12) (or (>= (- y12 0.08167556) y6))))) 
(and (or (<= (+ x6 0.9995972253) x13) (or (<= (+ x13 0.1726588421) x6) (or (>= (- y6 0.373010947) y13) (or (>= (- y13 0.0184531034) y6))))) 
(and (or (<= (+ x6 0.9995972253) x14) (or (<= (+ x14 0.6712994795) x6) (or (>= (- y6 0.373010947) y14) (or (>= (- y14 0.0167860834) y6))))) 
(and (or (<= (+ x7 0.815535199) x8) (or (<= (+ x8 0.7523573542) x7) (or (>= (- y7 0.294529903) y8) (or (>= (- y8 0.2695555415) y7))))) 
(and (or (<= (+ x7 0.815535199) x9) (or (<= (+ x9 0.6544521991) x7) (or (>= (- y7 0.294529903) y9) (or (>= (- y9 0.1938987941) y7))))) 
(and (or (<= (+ x7 0.815535199) x10) (or (<= (+ x10 0.2100943678) x7) (or (>= (- y7 0.294529903) y10) (or (>= (- y10 0.1249333763) y7))))) 
(and (or (<= (+ x7 0.815535199) x11) (or (<= (+ x11 0.675468283) x7) (or (>= (- y7 0.294529903) y11) (or (>= (- y11 0.1137595136) y7))))) 
(and (or (<= (+ x7 0.815535199) x12) (or (<= (+ x12 0.0407524645) x7) (or (>= (- y7 0.294529903) y12) (or (>= (- y12 0.08167556) y7))))) 
(and (or (<= (+ x7 0.815535199) x13) (or (<= (+ x13 0.1726588421) x7) (or (>= (- y7 0.294529903) y13) (or (>= (- y13 0.0184531034) y7))))) 
(and (or (<= (+ x7 0.815535199) x14) (or (<= (+ x14 0.6712994795) x7) (or (>= (- y7 0.294529903) y14) (or (>= (- y14 0.0167860834) y7))))) 
(and (or (<= (+ x8 0.7523573542) x9) (or (<= (+ x9 0.6544521991) x8) (or (>= (- y8 0.2695555415) y9) (or (>= (- y9 0.1938987941) y8))))) 
(and (or (<= (+ x8 0.7523573542) x10) (or (<= (+ x10 0.2100943678) x8) (or (>= (- y8 0.2695555415) y10) (or (>= (- y10 0.1249333763) y8))))) 
(and (or (<= (+ x8 0.7523573542) x11) (or (<= (+ x11 0.675468283) x8) (or (>= (- y8 0.2695555415) y11) (or (>= (- y11 0.1137595136) y8))))) 
(and (or (<= (+ x8 0.7523573542) x12) (or (<= (+ x12 0.0407524645) x8) (or (>= (- y8 0.2695555415) y12) (or (>= (- y12 0.08167556) y8))))) 
(and (or (<= (+ x8 0.7523573542) x13) (or (<= (+ x13 0.1726588421) x8) (or (>= (- y8 0.2695555415) y13) (or (>= (- y13 0.0184531034) y8))))) 
(and (or (<= (+ x8 0.7523573542) x14) (or (<= (+ x14 0.6712994795) x8) (or (>= (- y8 0.2695555415) y14) (or (>= (- y14 0.0167860834) y8))))) 
(and (or (<= (+ x9 0.6544521991) x10) (or (<= (+ x10 0.2100943678) x9) (or (>= (- y9 0.1938987941) y10) (or (>= (- y10 0.1249333763) y9))))) 
(and (or (<= (+ x9 0.6544521991) x11) (or (<= (+ x11 0.675468283) x9) (or (>= (- y9 0.1938987941) y11) (or (>= (- y11 0.1137595136) y9))))) 
(and (or (<= (+ x9 0.6544521991) x12) (or (<= (+ x12 0.0407524645) x9) (or (>= (- y9 0.1938987941) y12) (or (>= (- y12 0.08167556) y9))))) 
(and (or (<= (+ x9 0.6544521991) x13) (or (<= (+ x13 0.1726588421) x9) (or (>= (- y9 0.1938987941) y13) (or (>= (- y13 0.0184531034) y9))))) 
(and (or (<= (+ x9 0.6544521991) x14) (or (<= (+ x14 0.6712994795) x9) (or (>= (- y9 0.1938987941) y14) (or (>= (- y14 0.0167860834) y9))))) 
(and (or (<= (+ x10 0.2100943678) x11) (or (<= (+ x11 0.675468283) x10) (or (>= (- y10 0.1249333763) y11) (or (>= (- y11 0.1137595136) y10))))) 
(and (or (<= (+ x10 0.2100943678) x12) (or (<= (+ x12 0.0407524645) x10) (or (>= (- y10 0.1249333763) y12) (or (>= (- y12 0.08167556) y10))))) 
(and (or (<= (+ x10 0.2100943678) x13) (or (<= (+ x13 0.1726588421) x10) (or (>= (- y10 0.1249333763) y13) (or (>= (- y13 0.0184531034) y10))))) 
(and (or (<= (+ x10 0.2100943678) x14) (or (<= (+ x14 0.6712994795) x10) (or (>= (- y10 0.1249333763) y14) (or (>= (- y14 0.0167860834) y10))))) 
(and (or (<= (+ x11 0.675468283) x12) (or (<= (+ x12 0.0407524645) x11) (or (>= (- y11 0.1137595136) y12) (or (>= (- y12 0.08167556) y11))))) 
(and (or (<= (+ x11 0.675468283) x13) (or (<= (+ x13 0.1726588421) x11) (or (>= (- y11 0.1137595136) y13) (or (>= (- y13 0.0184531034) y11))))) 
(and (or (<= (+ x11 0.675468283) x14) (or (<= (+ x14 0.6712994795) x11) (or (>= (- y11 0.1137595136) y14) (or (>= (- y14 0.0167860834) y11))))) 
(and (or (<= (+ x12 0.0407524645) x13) (or (<= (+ x13 0.1726588421) x12) (or (>= (- y12 0.08167556) y13) (or (>= (- y13 0.0184531034) y12))))) 
(and (or (<= (+ x12 0.0407524645) x14) (or (<= (+ x14 0.6712994795) x12) (or (>= (- y12 0.08167556) y14) (or (>= (- y14 0.0167860834) y12))))) 
(and (or (<= (+ x13 0.1726588421) x14) (or (<= (+ x14 0.6712994795) x13) (or (>= (- y13 0.0184531034) y14) (or (>= (- y14 0.0167860834) y13))))) )))))))))))))))))))))))))))))))))))))))))))))))))))))))))))))))))))))))))))))))))))))))))))))))))))))))))))))))))))))))))))))))))))))))))))))))))))))))))))))))))))))))))))))))))))))))))))))))))))))))))))))))))))))))
(minimize c)
(check-sat)
(get-objectives)
(exit)
